&control
 calculation='scf',
 outdir='./temp/',
 prefix="BN",
 pseudo_dir='/home/tjsmart/Pseudo/'
 verbosity='high',
 wf_collect=.true.,
 etot_conv_thr = 1d-5,
 forc_conv_thr = 1d-3
/
&system
 ibrav=0,
 nat=72,
 ntyp=2,
 ecutwfc=90,
 tot_charge=0,
! nbnd=8,
 occupations='smearing', smearing='cold', degauss=1.0D-4
/
&electrons
 electron_maxstep=600,
 mixing_beta=0.7,
 conv_thr=1.0D-8,
 diago_full_acc = .true.
/
&ions
/
&cell
 cell_dofree='2Dxy'
/
CELL_PARAMETERS {angstrom}
       15.0404405594         0.0000000000         0.0000000000
       -7.5202199758        13.0254070876         0.0000000000
        0.0000000000         0.0000000000        15.8753000000
ATOMIC_SPECIES
B 10.811 B_ONCV_PBE-1.0.upf
N 14.0067 N_ONCV_PBE-1.0.upf
ATOMIC_POSITIONS {crystal}
B 0.055555496 0.111111164 0.000000000
B 0.055555496 0.277777821 0.000000000
B 0.055555496 0.444444507 0.000000000
B 0.055555496 0.611111164 0.000000000
B 0.055555496 0.777777851 0.000000000
B 0.055555496 0.944444478 0.000000000
B 0.222222164 0.111111164 0.000000000
B 0.222222164 0.277777821 0.000000000
B 0.222222164 0.444444507 0.000000000
B 0.222222164 0.611111164 0.000000000
B 0.222222164 0.777777851 0.000000000
B 0.222222164 0.944444478 0.000000000
B 0.388888836 0.111111164 0.000000000
B 0.388888836 0.277777821 0.000000000
B 0.388888836 0.444444507 0.000000000
B 0.388888836 0.611111164 0.000000000
B 0.388888836 0.777777851 0.000000000
B 0.388888836 0.944444478 0.000000000
B 0.555555522 0.111111164 0.000000000
B 0.555555522 0.277777821 0.000000000
B 0.555555522 0.444444507 0.000000000
B 0.555555522 0.611111164 0.000000000
B 0.555555522 0.777777851 0.000000000
B 0.555555522 0.944444478 0.000000000
B 0.722222149 0.111111164 0.000000000
B 0.722222149 0.277777821 0.000000000
B 0.722222149 0.444444507 0.000000000
B 0.722222149 0.611111164 0.000000000
B 0.722222149 0.777777851 0.000000000
B 0.722222149 0.944444478 0.000000000
B 0.888888836 0.111111164 0.000000000
B 0.888888836 0.277777821 0.000000000
B 0.888888836 0.444444507 0.000000000
B 0.888888836 0.611111164 0.000000000
B 0.888888836 0.777777851 0.000000000
B 0.888888836 0.944444478 0.000000000
N 0.111111164 0.055555496 0.000000000
N 0.111111164 0.222222164 0.000000000
N 0.111111164 0.388888836 0.000000000
N 0.111111164 0.555555522 0.000000000
N 0.111111164 0.722222149 0.000000000
N 0.111111164 0.888888836 0.000000000
N 0.277777821 0.055555496 0.000000000
N 0.277777821 0.222222164 0.000000000
N 0.277777821 0.388888836 0.000000000
N 0.277777821 0.555555522 0.000000000
N 0.277777821 0.722222149 0.000000000
N 0.277777821 0.888888836 0.000000000
N 0.444444507 0.055555496 0.000000000
N 0.444444507 0.222222164 0.000000000
N 0.444444507 0.388888836 0.000000000
N 0.444444507 0.555555522 0.000000000
N 0.444444507 0.722222149 0.000000000
N 0.444444507 0.888888836 0.000000000
N 0.611111164 0.055555496 0.000000000
N 0.611111164 0.222222164 0.000000000
N 0.611111164 0.388888836 0.000000000
N 0.611111164 0.555555522 0.000000000
N 0.611111164 0.722222149 0.000000000
N 0.611111164 0.888888836 0.000000000
N 0.777777851 0.055555496 0.000000000
N 0.777777851 0.222222164 0.000000000
N 0.777777851 0.388888836 0.000000000
N 0.777777851 0.555555522 0.000000000
N 0.777777851 0.722222149 0.000000000
N 0.777777851 0.888888836 0.000000000
N 0.944444478 0.055555496 0.000000000
N 0.944444478 0.222222164 0.000000000
N 0.944444478 0.388888836 0.000000000
N 0.944444478 0.555555522 0.000000000
N 0.944444478 0.722222149 0.000000000
N 0.944444478 0.888888836 0.000000000
K_POINTS {automatic}
2 2 1 0 0 0
