&control
    prefix = 'BN'
    verbosity = 'high'
    wf_collect = .true.
    etot_conv_thr = 1e-05
    forc_conv_thr = 0.001
/

&system
    ibrav = 4
    a = 10.026960372666666
    c = 15.8753
    nat = 32
    ntyp = 3
    ecutwfc = 40
    occupations = 'smearing'
    smearing = 'cold'
    degauss = 0.0001
    nspin = 2
    starting_magnetization(1:3) = 0.2, 0.2, 0.2
/

&electrons
    mixing_beta = 0.7
    conv_thr = 1e-08
    diago_full_acc = .true.
/

&ions
/

ATOMIC_SPECIES
    B       10.8110  B_ONCV_PBE-1.0.upf
    N       14.0067  N_ONCV_PBE-1.0.upf
    C       12.0107  C_ONCV_PBE-1.0.upf

ATOMIC_POSITIONS crystal
    B           0.084690418       0.167682028       0.000000000
    N           0.166624279       0.083248557       0.000000000
    B           0.084690418       0.417008391       0.000000000
    N           0.171000688       0.335500344      -0.000000000
    B           0.083378783       0.666621217      -0.000000000
    N           0.166624279       0.583375721      -0.000000000
    B           0.083378783       0.916757568       0.000000000
    N           0.166836464       0.833418231      -0.000000000
    B           0.332991609       0.167682028      -0.000000000
    N           0.416757209       0.084278496      -0.000000000
    C           0.333333333       0.416666667       0.000000000
    N           0.414499656       0.335500344      -0.000000000
    B           0.332991609       0.665309582       0.000000000
    N           0.414499656       0.578999312       0.000000000
    B           0.333422556       0.916711279       0.000000000
    N           0.416757209       0.832478712       0.000000000
    B           0.583293906       0.166706094       0.000000000
    N           0.666666667       0.083333333       0.000000000
    B           0.582317972       0.417008391      -0.000000000
    N           0.665721504       0.333242791      -0.000000000
    B           0.582317972       0.665309582       0.000000000
    N           0.666751443       0.583375721      -0.000000000
    B           0.583293906       0.916587813       0.000000000
    N           0.665721504       0.832478712      -0.000000000
    B           0.833412187       0.166706094       0.000000000
    N           0.917521288       0.084278496       0.000000000
    B           0.833288721       0.416577444      -0.000000000
    N           0.917521288       0.333242791      -0.000000000
    B           0.833242432       0.666621217       0.000000000
    N           0.916581769       0.583163536      -0.000000000
    B           0.833288721       0.916711279      -0.000000000
    N           0.916581769       0.833418231       0.000000000

K_POINTS automatic
    3  3  1    0  0  0

