&control
 calculation='relax',
 prefix='co',
 wf_collect=.true.,
/
&system
 ibrav=0,
 nat=56,
 ntyp=5,
 ecutwfc=50,
 nspin=2,
 starting_magnetization(3)=-0.5, starting_magnetization(4)=0.5,
 starting_magnetization(5)=0.2,
 occupations='smearing', smearing='mp', degauss=1.0d-3,
 lda_plus_u=.true.
 Hubbard_U(2)=4.0, Hubbard_U(3)=3.0, Hubbard_U(4)=3.0, Hubbard_U(5)=4.0,
 tot_charge=+1,
 tot_magnetization=1,
/
&electrons
 conv_thr=1.0d-8,
 mixing_beta=0.3,
 electron_maxstep=60,
 scf_must_converge=.false.,
/
&ions
/
CELL_PARAMETERS (angstrom)
   8.110783481 0.000000000 0.000000000
   0.000000000 8.110783481 0.000000000
   0.000000000 0.000000000 8.110783481
ATOMIC_SPECIES
O   1.00 O_ONCV_PBE-1.0.upf
Co1 1.00 Co_ONCV_PBE-1.0.upf
Co2 1.00 Co_ONCV_PBE-1.0.upf
Co3 1.00 Co_ONCV_PBE-1.0.upf
Co4 1.00 Co_ONCV_PBE-1.0.upf
ATOMIC_POSITIONS crystal
Co1      0.625432197   0.874435623   0.374780625
Co1      0.624987350   0.624981445   0.124977713
Co1      0.374780625   0.874435623   0.625432197
Co1      0.875285548   0.624975850   0.374730251
Co2      0.751714596   0.747847406   0.751714596
Co3      0.000118661   0.499974898   0.000118661
Co1      0.624631710   0.375651199   0.875289416
Co4      0.625020250   0.124883624   0.625020250
Co1      0.374925096   0.375087457   0.125188564
Co1      0.874836557   0.124917162   0.874836557
Co2      0.751975958   0.251893541   0.248341540
Co3      0.001636172  -0.001956407   0.497939211
Co1      0.124760779   0.874939551   0.875092377
Co1      0.124977713   0.624981445   0.624987350
Co1      0.875092377   0.874939551   0.124760779
Co1      0.374730251   0.624975850   0.875285548
Co2      0.249925302   0.750088662   0.249925302
Co3      0.498240738   0.502134965   0.498240738
Co1      0.125188564   0.375087457   0.374925096
Co1      0.124978643   0.124994746   0.124978643
Co1      0.875289416   0.375651199   0.624631710
Co1      0.375260308   0.125154420   0.375260308
Co2      0.248341540   0.251893541   0.751975958
Co3      0.497939211  -0.001956407   0.001636172
O        0.139142220   0.360831704   0.139142220
O        0.111058446   0.610870257   0.388969371
O        0.889060623   0.610295154   0.611056226
O        0.889180469   0.389118239   0.389150728
O        0.861008214   0.639137185   0.138943394
O        0.861075627   0.860862203   0.360787337
O        0.611493952   0.888289977   0.611493952
O        0.638987403   0.639691655   0.360985490
O        0.139521623   0.861316828   0.638974432
O        0.109402024   0.111390984   0.888558922
O        0.888558922   0.111390984   0.109402024
O        0.888761437   0.889257943   0.888761437
O        0.860181801   0.138620483   0.636266553
O        0.860622198   0.360619597   0.860622198
O        0.611088567   0.388752209   0.110447432
O        0.636266553   0.138620483   0.860181801
O        0.638349816   0.361568633   0.638349816
O        0.611056226   0.610295154   0.889060623
O        0.388969371   0.610870257   0.111058446
O        0.389150728   0.389118239   0.889180469
O        0.360985490   0.639691655   0.638987403
O        0.360787337   0.860862203   0.861075627
O        0.110855362   0.889151180   0.110855362
O        0.138943394   0.639137185   0.861008214
O        0.638974432   0.861316828   0.139521623
O        0.613565251   0.111168638   0.389732269
O        0.389732269   0.111168638   0.613565251
O        0.389439362   0.889463137   0.389439362
O        0.361513712   0.138678147   0.140560761
O        0.361189419   0.361001466   0.361189419
O        0.110447432   0.388752209   0.611088567
O        0.140560761   0.138678147   0.361513712
K_POINTS automatic
2 2 2 0 0 0
