&control
 calculation='vc-relax',
 wf_collect=.true.,
/
&system
 ibrav=0,
 nat=5,
 ntyp=3,
 ecutwfc=80,
/
&electrons
 conv_thr=1.0d-8,
/
&ions
/
&cell
/
ATOMIC_SPECIES
 Cs 1.00 Cs_ONCV_PBE-1.0.upf
 Pb 1.00 Pb_ONCV_PBE-1.0.upf
 Br 1.00 Br_ONCV_PBE-1.0.upf
CELL_PARAMETERS angstrom
  6.017000000   0.000000000   0.000000000
  0.000000000   6.017000000   0.000000000
  0.000000000   0.000000000   6.017000000
ATOMIC_POSITIONS crystal
 Cs 0.000000 0.000000 0.000000 
 Pb 0.500000 0.500000 0.500000 
 Br 0.000000 0.500000 0.500000 
 Br 0.500000 0.000000 0.500000 
 Br 0.500000 0.500000 0.000000 
K_POINTS automatic
 8 8 8 0 0 0
