 &control
    calculation = 'scf',
    prefix = 'Si_exc1',
    pseudo_dir = './'
    outdir = 'temp'
 /
 &system
    ibrav =  0, 
    nat =  2, 
    ntyp = 1,
    ecutwfc = 20
 /
 &electrons
    mixing_beta = 0.7
 /

ATOMIC_SPECIES
 Si 28.086  Si_ONCV_PBE-1.1.upf

CELL_PARAMETERS angstrom
        -2.714679092       0.000000000       2.714679092
         0.000000000       2.714679092       2.714679092
        -2.714679092       2.714679092       0.000000000

ATOMIC_POSITIONS crystal
 Si 0.0 0.0 0.0
 Si 0.25 0.25 0.25

K_POINTS (automatic)
  6 6 6 1 1 1
