&control
    calculation = 'scf'
    prefix = 'Si_exc1'
    pseudo_dir = './'
    outdir = 'temp'
/

&system
    ibrav = 2
    celldm(1) = 10.26
    nat = 2
    ntyp = 1
    ecutwfc = 20
/

&electrons
    mixing_beta = 0.7
/
ATOMIC_SPECIES
    Si  28.086  Si_ONCV_PBE-1.1.upf
ATOMIC_POSITIONS alat
    Si         0.000000000       0.000000000       0.000000000
    Si         0.250000000       0.250000000       0.250000000
K_POINTS gamma
