&control
    calculation = 'scf'
    outdir = './temp/'
    prefix = 'BN'
    pseudo_dir = '/home/tjsmart/Pseudo/'
    verbosity = 'high'
    wf_collect = .true.
    etot_conv_thr = 1e-05
    forc_conv_thr = 0.001
/

&system
    ibrav = 0
    nat = 72
    ntyp = 2
    ecutwfc = 90
    tot_charge = 0
    occupations = 'smearing'
    smearing = 'cold'
    degauss = 0.0001
/

&electrons
    electron_maxstep = 600
    mixing_beta = 0.7
    conv_thr = 1e-08
    diago_full_acc = .true.
/

&ions
/

&cell
    cell_dofree = '2Dxy'
/
ATOMIC_SPECIES
    B  10.811  B_ONCV_PBE-1.0.upf
    N  14.0067  N_ONCV_PBE-1.0.upf
CELL_PARAMETERS angstrom
        15.040440559       0.000000000       0.000000000
        -7.520219976      13.025407088       0.000000000
         0.000000000       0.000000000      15.875300000
ATOMIC_POSITIONS crystal
    B         0.055555496       0.111111164       0.000000000
    B         0.055555496       0.277777821       0.000000000
    B         0.055555496       0.444444507       0.000000000
    B         0.055555496       0.611111164       0.000000000
    B         0.055555496       0.777777851       0.000000000
    B         0.055555496       0.944444478       0.000000000
    B         0.222222164       0.111111164       0.000000000
    B         0.222222164       0.277777821       0.000000000
    B         0.222222164       0.444444507       0.000000000
    B         0.222222164       0.611111164       0.000000000
    B         0.222222164       0.777777851       0.000000000
    B         0.222222164       0.944444478       0.000000000
    B         0.388888836       0.111111164       0.000000000
    B         0.388888836       0.277777821       0.000000000
    B         0.388888836       0.444444507       0.000000000
    B         0.388888836       0.611111164       0.000000000
    B         0.388888836       0.777777851       0.000000000
    B         0.388888836       0.944444478       0.000000000
    B         0.555555522       0.111111164       0.000000000
    B         0.555555522       0.277777821       0.000000000
    B         0.555555522       0.444444507       0.000000000
    B         0.555555522       0.611111164       0.000000000
    B         0.555555522       0.777777851       0.000000000
    B         0.555555522       0.944444478       0.000000000
    B         0.722222149       0.111111164       0.000000000
    B         0.722222149       0.277777821       0.000000000
    B         0.722222149       0.444444507       0.000000000
    B         0.722222149       0.611111164       0.000000000
    B         0.722222149       0.777777851       0.000000000
    B         0.722222149       0.944444478       0.000000000
    B         0.888888836       0.111111164       0.000000000
    B         0.888888836       0.277777821       0.000000000
    B         0.888888836       0.444444507       0.000000000
    B         0.888888836       0.611111164       0.000000000
    B         0.888888836       0.777777851       0.000000000
    B         0.888888836       0.944444478       0.000000000
    N         0.111111164       0.055555496       0.000000000
    N         0.111111164       0.222222164       0.000000000
    N         0.111111164       0.388888836       0.000000000
    N         0.111111164       0.555555522       0.000000000
    N         0.111111164       0.722222149       0.000000000
    N         0.111111164       0.888888836       0.000000000
    N         0.277777821       0.055555496       0.000000000
    N         0.277777821       0.222222164       0.000000000
    N         0.277777821       0.388888836       0.000000000
    N         0.277777821       0.555555522       0.000000000
    N         0.277777821       0.722222149       0.000000000
    N         0.277777821       0.888888836       0.000000000
    N         0.444444507       0.055555496       0.000000000
    N         0.444444507       0.222222164       0.000000000
    N         0.444444507       0.388888836       0.000000000
    N         0.444444507       0.555555522       0.000000000
    N         0.444444507       0.722222149       0.000000000
    N         0.444444507       0.888888836       0.000000000
    N         0.611111164       0.055555496       0.000000000
    N         0.611111164       0.222222164       0.000000000
    N         0.611111164       0.388888836       0.000000000
    N         0.611111164       0.555555522       0.000000000
    N         0.611111164       0.722222149       0.000000000
    N         0.611111164       0.888888836       0.000000000
    N         0.777777851       0.055555496       0.000000000
    N         0.777777851       0.222222164       0.000000000
    N         0.777777851       0.388888836       0.000000000
    N         0.777777851       0.555555522       0.000000000
    N         0.777777851       0.722222149       0.000000000
    N         0.777777851       0.888888836       0.000000000
    N         0.944444478       0.055555496       0.000000000
    N         0.944444478       0.222222164       0.000000000
    N         0.944444478       0.388888836       0.000000000
    N         0.944444478       0.555555522       0.000000000
    N         0.944444478       0.722222149       0.000000000
    N         0.944444478       0.888888836       0.000000000
K_POINTS automatic
    2  2  1  0  0  0
