&control
 calculation='relax',
 prefix='BN',
 verbosity='high',
 wf_collect=.true.,
 etot_conv_thr = 1d-6,
 forc_conv_thr = 1d-5,
/
&system
 ibrav=4,
 A=2.5D0
 C=15.0D0
 nat=2,
 ntyp=2,
 ecutwfc=100,
 occupations='fixed',
 nbnd=12,
/
&electrons
 mixing_beta=0.7,
 conv_thr=1.0D-9,
/
&ions
/
ATOMIC_SPECIES
B 10.811 B_ONCV_PBE-1.0.upf
N 14.0067 N_ONCV_PBE-1.0.upf
ATOMIC_POSITIONS crystal
B        0.333333333   0.666666667   0.000000000
N        0.666666667   0.333333333   0.000000000
K_POINTS automatic
12 12 1 0 0 0
