&control
 calculation = 'relax',
 prefix = 'bfo',
 outdir='./temp/',
 wf_collect=.true.,
 /

&system
 ibrav =  0,
 nat = 120,
 ntyp = 4,
 ecutwfc = 40.0,
 ecutrho = 240,
 nspin=2,
 starting_magnetization(2)= 0.5, starting_magnetization(3)= -0.5,
 occupations='smearing',
 smearing='m-v',
 degauss=0.001,
 lda_plus_U = .true.,
 Hubbard_U(2) = 4.0, Hubbard_U(3) = 4.0, Hubbard_U(4) = 3.0,
/
&electrons
 electron_maxstep = 80,
 scf_must_converge=.false.,
  mixing_beta = 0.3,
/
&ions
/
CELL_PARAMETERS {angstrom}
  11.211127911   0.000000006   0.000000000
  -5.605563955   9.709121576  -0.000000000
  -0.000000000  -0.000000000  14.037131108
ATOMIC_SPECIES
 Bi 208.980  bi_pbe_v1.uspp.F.UPF
 Fe1 55.845  fe_pbe_v1.5.uspp.F.UPF  
 Fe2 55.845  fe_pbe_v1.5.uspp.F.UPF  
 O   15.999  o_pbe_v1.2.uspp.F.UPF  
ATOMIC_POSITIONS {crystal}
Fe2      0.000000000  -0.000000000   0.220246707
Fe2     -0.000000043   0.499999982   0.220247002
Fe2      0.500000022   0.000000047   0.220247002
Fe2      0.500000029   0.499999985   0.220247002
Fe2      0.333333622   0.166666552   0.553580876
Fe2      0.333333491   0.666666496   0.553581006
Fe2      0.833333398   0.166666581   0.553580876
Fe2      0.833333409   0.666666365   0.553580876
Fe2      0.166666430   0.333333428   0.886914403
Fe2      0.166666475   0.833333540   0.886914403
Fe2      0.666666506   0.333333493   0.886914478
Fe2      0.666666584   0.833333477   0.886914403
Fe1      0.166666342   0.333333254   0.386911982
Fe1      0.166666389   0.833333628   0.386911982
Fe1      0.666666506   0.333333493   0.386912659
Fe1      0.666666758   0.833333563   0.386911982
Fe1     -0.000000000  -0.000000000   0.720245513
Fe1     -0.000000440   0.499999786   0.720245740
Fe1      0.500000222   0.000000444   0.720245740
Fe1      0.500000225   0.499999785   0.720245740
Fe1      0.333333743   0.166666603   0.053578113
Fe1      0.333333491   0.666666496   0.053578237
Fe1      0.833333347   0.166666651   0.053578113
Fe1      0.833333339   0.666666244   0.053578113
Bi      -0.000000000   0.000000000   0.500089702
Bi       0.000001787   0.500000927   0.500089274
Bi       0.499999137  -0.000001783   0.500089274
Bi       0.499999084   0.500000870   0.500089274
Bi       0.166666981   0.333334468   0.666756953
Bi       0.166666964   0.833332989   0.666756953
Bi       0.666666506   0.333333493   0.666756543
Bi       0.666665544   0.833332988   0.666756953
Bi       0.333332013   0.166665810   0.833423159
Bi       0.333333491   0.666666496   0.833423103
Bi       0.833334140   0.166665714   0.833423159
Bi       0.833334276   0.666667974   0.833423159
Bi      -0.000000000  -0.000000000   0.000090884
Bi       0.000001794   0.500000985   0.000090994
Bi       0.499999188  -0.000001790   0.000090994
Bi       0.499999026   0.500000819   0.000090994
Bi       0.166666889   0.333334241   0.166756474
Bi       0.166666829   0.833333081   0.166756474
Bi       0.666666506   0.333333493   0.166756790
Bi       0.666665771   0.833333123   0.166756474
Bi       0.333333584   0.166666597   0.333422928
Bi       0.333333491   0.666666496   0.333423304
Bi       0.833333353   0.166666498   0.333422928
Bi       0.833333492   0.666666403   0.333422928
O        0.050359104   0.176001351   0.285554180
O        0.050359268   0.676000835   0.285554464
O        0.550358797   0.176000641   0.285554472
O        0.550358504   0.676000921   0.285554428
O        0.323999156   0.374358428   0.285554464
O        0.323999082   0.874357559   0.285554428
O        0.823999367   0.374358137   0.285554472
O        0.823998648   0.874357736   0.285554180
O        0.125642415   0.449641498   0.285554428
O        0.125642231   0.949640916   0.285554180
O        0.625641886   0.449641235   0.285554472
O        0.625641578   0.949640741   0.285554464
O        0.490665685   0.282974779   0.452221664
O        0.490665504   0.782974147   0.452222001
O        0.990666063   0.282974939   0.452221699
O        0.990665997   0.782974493   0.452221723
O        0.292308351   0.009333910   0.452221699
O        0.292308153   0.509334518   0.452222001
O        0.792307967   0.009334023   0.452221723
O        0.792308617   0.509334344   0.452221664
O        0.217025521   0.207692007   0.452221723
O        0.217025873   0.707691902   0.452222001
O        0.717025197   0.207691405   0.452221664
O        0.717025052   0.707691696   0.452221699
O        0.383692220   0.342667650   0.618888234
O        0.383692306   0.842666770   0.618888306
O        0.883692962   0.342667590   0.618888169
O        0.883692330   0.842667313   0.618888480
O        0.157332702   0.041024562   0.618888480
O        0.157333240   0.541025081   0.618888306
O        0.657332327   0.041024092   0.618888234
O        0.657332391   0.541024881   0.618888169
O        0.458975089   0.116307051   0.618888169
O        0.458974914   0.616307686   0.618888306
O        0.958975446   0.116307656   0.618888480
O        0.958975956   0.616307779   0.618888234
O        0.323999077   0.449641453   0.785554616
O        0.323998997   0.949640730   0.785554596
O        0.823999481   0.449641634   0.785554228
O        0.823999165   0.949640975   0.785554691
O        0.125641722   0.176000838   0.785554691
O        0.125642348   0.676000925   0.785554616
O        0.625642137   0.176000494   0.785554228
O        0.625641688   0.676001022   0.785554596
O        0.050359333   0.374358324   0.785554596
O        0.050359113   0.874358276   0.785554691
O        0.550358364   0.374357923   0.785554228
O        0.550358547   0.874357650   0.785554616
O        0.217025356   0.009334346   0.952220638
O        0.217026264   0.509334860   0.952220870
O        0.717025694   0.009334136   0.952220687
O        0.717025771   0.509335353   0.952220581
O        0.490664668   0.207690979   0.952220581
O        0.490665166   0.707691952   0.952220870
O        0.990665656   0.207691518   0.952220638
O        0.990665882   0.707692140   0.952220687
O        0.292307920   0.282974265   0.952220687
O        0.292308091   0.782973754   0.952220870
O        0.792309061   0.282974196   0.952220581
O        0.792308524   0.782974651   0.952220638
O        0.157332543   0.116307610   0.118887374
O        0.157333356   0.616307643   0.118887697
O        0.657332531   0.116306871   0.118887710
O        0.657332378   0.616307887   0.118887604
O        0.458974841   0.342667433   0.118887710
O        0.458974759   0.842666575   0.118887697
O        0.958975965   0.342667608   0.118887604
O        0.958975533   0.842667375   0.118887374
O        0.383692147   0.041024040   0.118887604
O        0.383692422   0.541025270   0.118887697
O        0.883692379   0.041024439   0.118887374
O        0.883693128   0.541025205   0.118887710
K_POINTS {automatic}
2 2 2 0 0 0 
